50
0 1 0.7 0.23
0 2 0.48 0.28
0 3 0.65 0.37
0 4 0.69 0.27
0 5 0.53 0.34
0 6 0.46 0.16
0 7 0.8 0.23
0 8 0.57 0.23
0 9 0.57 0.23
0 10 0.77 0.27
0 11 0.77 0.1
0 12 0.56 0.16
0 13 0.75 0.19
0 14 0.64 0.19
0 15 0.51 0.22
0 16 0.5 0.33
0 17 0.56 0.09
0 18 0.73 0.18
0 19 0.39 0.22
0 20 0.38 0.2
0 21 0.55 0.31
0 22 0.45 0.13
0 23 0.17 0.16
0 24 0.6 0.16
0 25 0.56 0.23
0 26 0.82 0.27
0 27 0.53 0.25
0 28 0.73 0.25
0 29 0.52 0.21
0 30 0.38 0.25
0 31 0.61 0.24
0 32 0.65 0.14
0 33 0.59 0.22
0 34 0.53 0.21
0 35 0.74 0.35
0 36 0.56 0.22
0 37 0.56 0.27
0 38 0.63 0.29
0 39 0.78 0.16
0 40 0.72 0.18
0 41 0.45 0.21
0 42 0.67 0.24
0 43 0.48 0.24
0 44 0.72 0.13
0 45 0.64 0.26
0 46 0.64 0.27
0 47 0.64 0.28
0 48 0.36 0.1
0 49 0.63 0.15
1 2 0.5 0.2
1 3 0.15 0.14
1 4 0.5 0.14
1 5 0.31 0.25
1 6 0.6 0.21
1 7 0.77 0.26
1 8 0.58 0.14
1 9 0.48 0.16
1 10 0.51 0.28
1 11 0.49 0.16
1 12 0.71 0.22
1 13 0.54 0.18
1 14 0.64 0.28
1 15 0.52 0.2
1 16 0.58 0.31
1 17 0.48 0.14
1 18 0.62 0.21
1 19 0.41 0.25
1 20 0.54 0.23
1 21 0.42 0.24
1 22 0.46 0.21
1 23 0.53 0.18
1 24 0.43 0.24
1 25 0.54 0.3
1 26 0.47 0.29
1 27 0.32 0.22
1 28 0.63 0.3
1 29 0.47 0.26
1 30 0.58 0.24
1 31 0.46 0.28
1 32 0.34 0.22
1 33 0.63 0.26
1 34 0.51 0.24
1 35 0.72 0.28
1 36 0.68 0.15
1 37 0.66 0.22
1 38 0.37 0.27
1 39 0.38 0.19
1 40 0.58 0.26
1 41 0.55 0.24
1 42 0.46 0.24
1 43 0.56 0.18
1 44 0.56 0.1
1 45 0.58 0.28
1 46 0.62 0.3
1 47 0.32 0.23
1 48 0.42 0.13
1 49 0.55 0.2
2 3 0.61 0.28
2 4 0.66 0.25
2 5 0.64 0.23
2 6 0.43 0.12
2 7 0.67 0.32
2 8 0.56 0.15
2 9 0.76 0.12
2 10 0.59 0.15
2 11 0.56 0.18
2 12 0.54 0.22
2 13 0.54 0.19
2 14 0.76 0.12
2 15 0.3 0.18
2 16 0.46 0.19
2 17 0.56 0.19
2 18 0.35 0.23
2 19 0.66 0.14
2 20 0.6 0.16
2 21 0.54 0.2
2 22 0.67 0.2
2 23 0.64 0.28
2 24 0.39 0.23
2 25 0.6 0.1
2 26 0.7 0.16
2 27 0.68 0.06
2 28 0.8 0.12
2 29 0.68 0.16
2 30 0.68 0.11
2 31 0.64 0.24
2 32 0.71 0.21
2 33 0.48 0.28
2 34 0.78 0.07
2 35 0.38 0.25
2 36 0.65 0.16
2 37 0.55 0.18
2 38 0.44 0.28
2 39 0.66 0.2
2 40 0.62 0.25
2 41 0.56 0.24
2 42 0.66 0.04
2 43 0.56 0.22
2 44 0.34 0.21
2 45 0.54 0.19
2 46 0.75 0.13
2 47 0.55 0.21
2 48 0.55 0.26
2 49 0.63 0.15
3 4 0.64 0.2
3 5 0.46 0.34
3 6 0.48 0.34
3 7 0.72 0.36
3 8 0.73 0.22
3 9 0.54 0.26
3 10 0.66 0.28
3 11 0.58 0.3
3 12 0.6 0.31
3 13 0.48 0.24
3 14 0.72 0.24
3 15 0.48 0.34
3 16 0.64 0.36
3 17 0.63 0.28
3 18 0.55 0.2
3 19 0.26 0.23
3 20 0.39 0.25
3 21 0.57 0.2
3 22 0.61 0.26
3 23 0.6 0.3
3 24 0.57 0.29
3 25 0.56 0.24
3 26 0.32 0.26
3 27 0.47 0.28
3 28 0.52 0.22
3 29 0.32 0.2
3 30 0.6 0.2
3 31 0.58 0.26
3 32 0.49 0.27
3 33 0.7 0.25
3 34 0.52 0.24
3 35 0.6 0.2
3 36 0.59 0.21
3 37 0.71 0.12
3 38 0.52 0.14
3 39 0.53 0.29
3 40 0.48 0.29
3 41 0.4 0.27
3 42 0.61 0.26
3 43 0.71 0.3
3 44 0.44 0.24
3 45 0.73 0.2
3 46 0.66 0.3
3 47 0.4 0.1
3 48 0.5 0.27
3 49 0.4 0.26
4 5 0.78 0.34
4 6 0.78 0.26
4 7 0.68 0.35
4 8 0.63 0.22
4 9 0.36 0.23
4 10 0.57 0.3
4 11 0.44 0.3
4 12 0.54 0.26
4 13 0.54 0.18
4 14 0.64 0.23
4 15 0.67 0.23
4 16 0.6 0.25
4 17 0.32 0.2
4 18 0.56 0.3
4 19 0.7 0.28
4 20 0.68 0.26
4 21 0.42 0.15
4 22 0.24 0.14
4 23 0.52 0.32
4 24 0.76 0.17
4 25 0.65 0.21
4 26 0.46 0.15
4 27 0.46 0.19
4 28 0.36 0.23
4 29 0.42 0.2
4 30 0.74 0.18
4 31 0.56 0.22
4 32 0.68 0.15
4 33 0.56 0.31
4 34 0.67 0.22
4 35 0.74 0.18
4 36 0.78 0.21
4 37 0.47 0.08
4 38 0.28 0.2
4 39 0.67 0.22
4 40 0.75 0.19
4 41 0.29 0.12
4 42 0.6 0.21
4 43 0.56 0.25
4 44 0.58 0.24
4 45 0.4 0.22
4 46 0.4 0.28
4 47 0.6 0.25
4 48 0.7 0.22
4 49 0.66 0.26
5 6 0.73 0.34
5 7 0.64 0.34
5 8 0.6 0.3
5 9 0.44 0.27
5 10 0.43 0.24
5 11 0.48 0.27
5 12 0.66 0.24
5 13 0.58 0.28
5 14 0.56 0.15
5 15 0.34 0.27
5 16 0.62 0.19
5 17 0.67 0.34
5 18 0.78 0.27
5 19 0.56 0.29
5 20 0.61 0.31
5 21 0.42 0.22
5 22 0.56 0.23
5 23 0.4 0.34
5 24 0.43 0.24
5 25 0.46 0.2
5 26 0.46 0.23
5 27 0.5 0.21
5 28 0.42 0.18
5 29 0.49 0.14
5 30 0.7 0.2
5 31 0.75 0.28
5 32 0.65 0.24
5 33 0.49 0.24
5 34 0.2 0.16
5 35 0.58 0.27
5 36 0.51 0.31
5 37 0.79 0.3
5 38 0.68 0.34
5 39 0.32 0.28
5 40 0.64 0.28
5 41 0.52 0.22
5 42 0.5 0.19
5 43 0.56 0.26
5 44 0.64 0.3
5 45 0.58 0.34
5 46 0.6 0.13
5 47 0.6 0.3
5 48 0.73 0.31
5 49 0.68 0.2
6 7 0.74 0.28
6 8 0.58 0.17
6 9 0.66 0.13
6 10 0.55 0.27
6 11 0.51 0.12
6 12 0.62 0.18
6 13 0.6 0.17
6 14 0.74 0.24
6 15 0.39 0.28
6 16 0.76 0.22
6 17 0.74 0.07
6 18 0.54 0.24
6 19 0.48 0.26
6 20 0.35 0.28
6 21 0.44 0.21
6 22 0.54 0.23
6 23 0.56 0.24
6 24 0.3 0.22
6 25 0.47 0.2
6 26 0.54 0.26
6 27 0.69 0.18
6 28 0.46 0.22
6 29 0.52 0.2
6 30 0.32 0.23
6 31 0.24 0.12
6 32 0.8 0.24
6 33 0.64 0.24
6 34 0.73 0.19
6 35 0.73 0.33
6 36 0.66 0.18
6 37 0.38 0.26
6 38 0.72 0.28
6 39 0.68 0.28
6 40 0.66 0.28
6 41 0.64 0.23
6 42 0.64 0.16
6 43 0.48 0.31
6 44 0.5 0.11
6 45 0.72 0.14
6 46 0.4 0.25
6 47 0.58 0.29
6 48 0.61 0.22
6 49 0.76 0.21
7 8 0.36 0.24
7 9 0.58 0.2
7 10 0.69 0.29
7 11 0.6 0.16
7 12 0.35 0.1
7 13 0.51 0.28
7 14 0.53 0.28
7 15 0.69 0.21
7 16 0.64 0.28
7 17 0.51 0.28
7 18 0.68 0.16
7 19 0.69 0.23
7 20 0.58 0.21
7 21 0.64 0.28
7 22 0.46 0.21
7 23 0.74 0.21
7 24 0.62 0.24
7 25 0.67 0.31
7 26 0.4 0.34
7 27 0.45 0.3
7 28 0.59 0.33
7 29 0.62 0.32
7 30 0.42 0.28
7 31 0.66 0.28
7 32 0.73 0.22
7 33 0.72 0.11
7 34 0.48 0.27
7 35 0.54 0.31
7 36 0.75 0.25
7 37 0.69 0.3
7 38 0.74 0.3
7 39 0.71 0.18
7 40 0.66 0.26
7 41 0.59 0.34
7 42 0.31 0.28
7 43 0.5 0.32
7 44 0.44 0.24
7 45 0.55 0.31
7 46 0.6 0.22
7 47 0.68 0.26
7 48 0.85 0.13
7 49 0.55 0.28
8 9 0.31 0.04
8 10 0.7 0.23
8 11 0.67 0.2
8 12 0.54 0.14
8 13 0.48 0.04
8 14 0.36 0.17
8 15 0.39 0.15
8 16 0.4 0.26
8 17 0.34 0.14
8 18 0.32 0.22
8 19 0.72 0.22
8 20 0.68 0.2
8 21 0.64 0.12
8 22 0.39 0.14
8 23 0.67 0.3
8 24 0.48 0.17
8 25 0.43 0.18
8 26 0.6 0.24
8 27 0.57 0.11
8 28 0.72 0.2
8 29 0.52 0.16
8 30 0.38 0.19
8 31 0.62 0.18
8 32 0.72 0.15
8 33 0.67 0.2
8 34 0.64 0.15
8 35 0.78 0.2
8 36 0.42 0.01
8 37 0.58 0.14
8 38 0.78 0.26
8 39 0.57 0.16
8 40 0.3 0.17
8 41 0.46 0.1
8 42 0.58 0.12
8 43 0.5 0.21
8 44 0.64 0.18
8 45 0.6 0.27
8 46 0.75 0.21
8 47 0.64 0.12
8 48 0.72 0.22
8 49 0.66 0.22
9 10 0.66 0.19
9 11 0.39 0.16
9 12 0.23 0.1
9 13 0.3 0.08
9 14 0.58 0.16
9 15 0.54 0.19
9 16 0.52 0.23
9 17 0.62 0.18
9 18 0.44 0.21
9 19 0.62 0.18
9 20 0.5 0.17
9 21 0.36 0.08
9 22 0.12 0.1
9 23 0.4 0.26
9 24 0.63 0.13
9 25 0.66 0.14
9 26 0.6 0.2
9 27 0.5 0.1
9 28 0.72 0.16
9 29 0.61 0.2
9 30 0.64 0.15
9 31 0.55 0.22
9 32 0.61 0.11
9 33 0.56 0.16
9 34 0.58 0.11
9 35 0.61 0.24
9 36 0.54 0.05
9 37 0.35 0.18
9 38 0.64 0.22
9 39 0.68 0.18
9 40 0.5 0.15
9 41 0.65 0.14
9 42 0.36 0.08
9 43 0.5 0.18
9 44 0.71 0.22
9 45 0.6 0.23
9 46 0.59 0.17
9 47 0.41 0.16
9 48 0.41 0.18
9 49 0.49 0.26
10 11 0.53 0.19
10 12 0.66 0.23
10 13 0.73 0.23
10 14 0.38 0.19
10 15 0.54 0.22
10 16 0.5 0.2
10 17 0.48 0.22
10 18 0.71 0.22
10 19 0.6 0.17
10 20 0.47 0.15
10 21 0.52 0.27
10 22 0.54 0.19
10 23 0.6 0.27
10 24 0.63 0.22
10 25 0.61 0.17
10 26 0.61 0.22
10 27 0.55 0.13
10 28 0.62 0.19
10 29 0.66 0.23
10 30 0.46 0.12
10 31 0.79 0.29
10 32 0.72 0.18
10 33 0.73 0.27
10 34 0.54 0.08
10 35 0.61 0.28
10 36 0.59 0.23
10 37 0.7 0.22
10 38 0.55 0.35
10 39 0.13 0.11
10 40 0.61 0.18
10 41 0.56 0.29
10 42 0.41 0.11
10 43 0.44 0.23
10 44 0.25 0.18
10 45 0.17 0.17
10 46 0.66 0.14
10 47 0.68 0.18
10 48 0.61 0.17
10 49 0.79 0.29
11 12 0.6 0.06
11 13 0.5 0.24
11 14 0.54 0.22
11 15 0.74 0.17
11 16 0.66 0.23
11 17 0.34 0.14
11 18 0.47 0.17
11 19 0.38 0.17
11 20 0.51 0.19
11 21 0.75 0.24
11 22 0.51 0.23
11 23 0.7 0.22
11 24 0.75 0.23
11 25 0.54 0.2
11 26 0.74 0.25
11 27 0.34 0.16
11 28 0.73 0.22
11 29 0.6 0.26
11 30 0.49 0.15
11 31 0.45 0.24
11 32 0.53 0.24
11 33 0.74 0.12
11 34 0.28 0.11
11 35 0.43 0.27
11 36 0.5 0.21
11 37 0.38 0.25
11 38 0.4 0.31
11 39 0.4 0.2
11 40 0.37 0.28
11 41 0.64 0.3
11 42 0.48 0.14
11 43 0.76 0.26
11 44 0.52 0.18
11 45 0.51 0.18
11 46 0.61 0.17
11 47 0.68 0.25
11 48 0.52 0.2
11 49 0.6 0.24
12 13 0.42 0.18
12 14 0.58 0.23
12 15 0.38 0.11
12 16 0.67 0.29
12 17 0.7 0.2
12 18 0.65 0.11
12 19 0.4 0.2
12 20 0.27 0.18
12 21 0.31 0.18
12 22 0.35 0.2
12 23 0.48 0.16
12 24 0.47 0.17
12 25 0.55 0.24
12 26 0.56 0.3
12 27 0.54 0.2
12 28 0.52 0.26
12 29 0.5 0.24
12 30 0.65 0.21
12 31 0.52 0.23
12 32 0.38 0.21
12 33 0.4 0.06
12 34 0.46 0.17
12 35 0.57 0.21
12 36 0.6 0.15
12 37 0.58 0.2
12 38 0.45 0.25
12 39 0.72 0.22
12 40 0.68 0.25
12 41 0.64 0.24
12 42 0.4 0.18
12 43 0.45 0.28
12 44 0.74 0.24
12 45 0.5 0.24
12 46 0.36 0.23
12 47 0.64 0.21
12 48 0.53 0.19
12 49 0.26 0.18
13 14 0.58 0.18
13 15 0.24 0.17
13 16 0.44 0.3
13 17 0.32 0.1
13 18 0.74 0.23
13 19 0.57 0.18
13 20 0.44 0.16
13 21 0.3 0.16
13 22 0.42 0.18
13 23 0.58 0.28
13 24 0.33 0.21
13 25 0.64 0.16
13 26 0.41 0.22
13 27 0.42 0.13
13 28 0.52 0.18
13 29 0.62 0.14
13 30 0.74 0.22
13 31 0.61 0.22
13 32 0.77 0.19
13 33 0.69 0.24
13 34 0.72 0.18
13 35 0.46 0.16
13 36 0.24 0.03
13 37 0.65 0.16
13 38 0.56 0.3
13 39 0.6 0.12
13 40 0.56 0.21
13 41 0.62 0.06
13 42 0.48 0.15
13 43 0.44 0.17
13 44 0.62 0.14
13 45 0.65 0.26
13 46 0.72 0.24
13 47 0.64 0.14
13 48 0.71 0.18
13 49 0.58 0.2
14 15 0.52 0.29
14 16 0.76 0.18
14 17 0.7 0.28
14 18 0.42 0.12
14 19 0.65 0.18
14 20 0.52 0.19
14 21 0.58 0.24
14 22 0.48 0.2
14 23 0.58 0.27
14 24 0.58 0.23
14 25 0.58 0.1
14 26 0.49 0.08
14 27 0.36 0.06
14 28 0.7 0.08
14 29 0.64 0.04
14 30 0.7 0.15
14 31 0.57 0.19
14 32 0.62 0.21
14 33 0.7 0.17
14 34 0.71 0.11
14 35 0.54 0.17
14 36 0.55 0.16
14 37 0.59 0.22
14 38 0.56 0.26
14 39 0.51 0.23
14 40 0.46 0.24
14 41 0.44 0.12
14 42 0.22 0.08
14 43 0.7 0.16
14 44 0.58 0.25
14 45 0.46 0.23
14 46 0.42 0.17
14 47 0.5 0.22
14 48 0.52 0.2
14 49 0.53 0.1
15 16 0.61 0.28
15 17 0.56 0.27
15 18 0.65 0.21
15 19 0.49 0.16
15 20 0.36 0.14
15 21 0.54 0.27
15 22 0.43 0.09
15 23 0.34 0.26
15 24 0.09 0.06
15 25 0.64 0.19
15 26 0.4 0.25
15 27 0.44 0.24
15 28 0.55 0.21
15 29 0.56 0.25
15 30 0.71 0.27
15 31 0.45 0.26
15 32 0.76 0.1
15 33 0.72 0.17
15 34 0.54 0.24
15 35 0.61 0.32
15 36 0.48 0.14
15 37 0.46 0.23
15 38 0.64 0.25
15 39 0.66 0.17
15 40 0.54 0.14
15 41 0.43 0.23
15 42 0.52 0.22
15 43 0.65 0.32
15 44 0.64 0.28
15 45 0.58 0.35
15 46 0.57 0.24
15 47 0.58 0.25
15 48 0.62 0.17
15 49 0.4 0.28
16 17 0.62 0.29
16 18 0.56 0.28
16 19 0.56 0.25
16 20 0.43 0.24
16 21 0.46 0.28
16 22 0.4 0.25
16 23 0.33 0.3
16 24 0.56 0.22
16 25 0.68 0.16
16 26 0.46 0.1
16 27 0.46 0.17
16 28 0.6 0.18
16 29 0.72 0.22
16 30 0.78 0.16
16 31 0.74 0.19
16 32 0.41 0.26
16 33 0.64 0.3
16 34 0.42 0.12
16 35 0.58 0.19
16 36 0.62 0.27
16 37 0.54 0.26
16 38 0.62 0.35
16 39 0.48 0.26
16 40 0.56 0.3
16 41 0.65 0.3
16 42 0.6 0.15
16 43 0.44 0.26
16 44 0.64 0.26
16 45 0.64 0.3
16 46 0.7 0.06
16 47 0.78 0.26
16 48 0.68 0.32
16 49 0.79 0.28
17 18 0.55 0.23
17 19 0.68 0.24
17 20 0.76 0.25
17 21 0.62 0.26
17 22 0.56 0.21
17 23 0.73 0.25
17 24 0.5 0.24
17 25 0.49 0.26
17 26 0.4 0.28
17 27 0.64 0.23
17 28 0.48 0.28
17 29 0.68 0.24
17 30 0.42 0.22
17 31 0.71 0.19
17 32 0.66 0.2
17 33 0.56 0.26
17 34 0.59 0.18
17 35 0.69 0.26
17 36 0.55 0.13
17 37 0.72 0.25
17 38 0.46 0.21
17 39 0.35 0.21
17 40 0.64 0.24
17 41 0.53 0.16
17 42 0.5 0.21
17 43 0.54 0.27
17 44 0.3 0.04
17 45 0.62 0.21
17 46 0.55 0.24
17 47 0.38 0.24
17 48 0.62 0.15
17 49 0.44 0.24
18 19 0.52 0.09
18 20 0.54 0.07
18 21 0.76 0.2
18 22 0.32 0.16
18 23 0.6 0.15
18 24 0.64 0.19
18 25 0.7 0.22
18 26 0.64 0.2
18 27 0.64 0.18
18 28 0.55 0.2
18 29 0.42 0.16
18 30 0.56 0.2
18 31 0.3 0.12
18 32 0.72 0.17
18 33 0.52 0.05
18 34 0.66 0.22
18 35 0.46 0.27
18 36 0.74 0.21
18 37 0.5 0.26
18 38 0.46 0.14
18 39 0.7 0.11
18 40 0.54 0.18
18 41 0.64 0.24
18 42 0.64 0.19
18 43 0.8 0.25
18 44 0.46 0.19
18 45 0.56 0.22
18 46 0.46 0.22
18 47 0.46 0.1
18 48 0.6 0.08
18 49 0.61 0.21
19 20 0.13 0.02
19 21 0.7 0.26
19 22 0.5 0.14
19 23 0.34 0.14
19 24 0.47 0.16
19 25 0.41 0.16
19 26 0.58 0.22
19 27 0.6 0.12
19 28 0.56 0.18
19 29 0.51 0.22
19 30 0.77 0.16
19 31 0.72 0.21
19 32 0.58 0.13
19 33 0.69 0.14
19 34 0.62 0.13
19 35 0.63 0.31
19 36 0.61 0.21
19 37 0.73 0.24
19 38 0.75 0.21
19 39 0.6 0.06
19 40 0.51 0.17
19 41 0.46 0.24
19 42 0.46 0.1
19 43 0.61 0.2
19 44 0.7 0.23
19 45 0.7 0.24
19 46 0.62 0.19
19 47 0.66 0.19
19 48 0.32 0.12
19 49 0.65 0.22
20 21 0.58 0.25
20 22 0.49 0.12
20 23 0.21 0.12
20 24 0.34 0.15
20 25 0.28 0.18
20 26 0.71 0.24
20 27 0.5 0.14
20 28 0.58 0.2
20 29 0.38 0.23
20 30 0.67 0.14
20 31 0.59 0.19
20 32 0.55 0.11
20 33 0.63 0.12
20 34 0.54 0.15
20 35 0.6 0.32
20 36 0.48 0.19
20 37 0.62 0.24
20 38 0.65 0.21
20 39 0.53 0.04
20 40 0.45 0.15
20 41 0.59 0.22
20 42 0.59 0.12
20 43 0.48 0.18
20 44 0.66 0.21
20 45 0.62 0.22
20 46 0.62 0.21
20 47 0.79 0.17
20 48 0.45 0.1
20 49 0.53 0.24
21 22 0.48 0.18
21 23 0.38 0.24
21 24 0.63 0.21
21 25 0.36 0.22
21 26 0.56 0.18
21 27 0.58 0.18
21 28 0.4 0.24
21 29 0.66 0.22
21 30 0.61 0.2
21 31 0.46 0.3
21 32 0.58 0.19
21 33 0.58 0.24
21 34 0.62 0.19
21 35 0.74 0.27
21 36 0.54 0.13
21 37 0.54 0.23
21 38 0.58 0.22
21 39 0.59 0.26
21 40 0.79 0.23
21 41 0.71 0.22
21 42 0.64 0.16
21 43 0.14 0.1
21 44 0.54 0.3
21 45 0.41 0.31
21 46 0.5 0.25
21 47 0.4 0.1
21 48 0.48 0.26
21 49 0.57 0.28
22 23 0.28 0.24
22 24 0.52 0.03
22 25 0.72 0.1
22 26 0.48 0.16
22 27 0.54 0.18
22 28 0.6 0.12
22 29 0.66 0.16
22 30 0.67 0.18
22 31 0.43 0.23
22 32 0.65 0.01
22 33 0.63 0.21
22 34 0.46 0.15
22 35 0.54 0.24
22 36 0.66 0.15
22 37 0.23 0.14
22 38 0.52 0.16
22 39 0.56 0.08
22 40 0.51 0.05
22 41 0.53 0.21
22 42 0.48 0.16
22 43 0.62 0.27
22 44 0.66 0.19
22 45 0.52 0.28
22 46 0.59 0.21
22 47 0.53 0.26
22 48 0.46 0.08
22 49 0.61 0.19
23 24 0.43 0.27
23 25 0.49 0.3
23 26 0.74 0.28
23 27 0.36 0.26
23 28 0.56 0.28
23 29 0.59 0.24
23 30 0.55 0.18
23 31 0.6 0.27
23 32 0.74 0.23
23 33 0.42 0.1
23 34 0.52 0.22
23 35 0.81 0.37
23 36 0.62 0.31
23 37 0.51 0.28
23 38 0.46 0.29
23 39 0.64 0.16
23 40 0.66 0.27
23 41 0.62 0.32
23 42 0.5 0.24
23 43 0.52 0.14
23 44 0.66 0.22
23 45 0.5 0.1
23 46 0.47 0.28
23 47 0.61 0.25
23 48 0.46 0.21
23 49 0.46 0.18
24 25 0.62 0.13
24 26 0.49 0.19
24 27 0.53 0.21
24 28 0.46 0.15
24 29 0.64 0.19
24 30 0.62 0.21
24 31 0.54 0.2
24 32 0.77 0.04
24 33 0.63 0.23
24 34 0.51 0.18
24 35 0.52 0.27
24 36 0.57 0.18
24 37 0.37 0.17
24 38 0.64 0.19
24 39 0.72 0.11
24 40 0.51 0.08
24 41 0.52 0.24
24 42 0.61 0.19
24 43 0.66 0.3
24 44 0.7 0.22
24 45 0.67 0.31
24 46 0.48 0.24
24 47 0.6 0.29
24 48 0.68 0.11
24 49 0.49 0.22
25 26 0.48 0.06
25 27 0.22 0.08
25 28 0.71 0.02
25 29 0.66 0.06
25 30 0.58 0.13
25 31 0.71 0.21
25 32 0.48 0.11
25 33 0.55 0.27
25 34 0.26 0.09
25 35 0.67 0.15
25 36 0.57 0.18
25 37 0.56 0.2
25 38 0.37 0.26
25 39 0.51 0.18
25 40 0.73 0.15
25 41 0.59 0.14
25 42 0.36 0.06
25 43 0.5 0.18
25 44 0.38 0.23
25 45 0.6 0.21
25 46 0.65 0.15
25 47 0.66 0.23
25 48 0.62 0.18
25 49 0.61 0.12
26 27 0.7 0.14
26 28 0.76 0.08
26 29 0.56 0.12
26 30 0.72 0.1
26 31 0.7 0.27
26 32 0.44 0.17
26 33 0.7 0.25
26 34 0.54 0.14
26 35 0.47 0.09
26 36 0.58 0.24
26 37 0.5 0.19
26 38 0.7 0.25
26 39 0.48 0.2
26 40 0.74 0.21
26 41 0.72 0.2
26 42 0.58 0.12
26 43 0.52 0.24
26 44 0.64 0.28
26 45 0.64 0.26
26 46 0.62 0.16
26 47 0.72 0.2
26 48 0.63 0.24
26 49 0.4 0.18
27 28 0.58 0.1
27 29 0.55 0.1
27 30 0.8 0.09
27 31 0.59 0.25
27 32 0.51 0.19
27 33 0.59 0.23
27 34 0.48 0.05
27 35 0.58 0.19
27 36 0.4 0.1
27 37 0.55 0.16
27 38 0.44 0.25
27 39 0.66 0.18
27 40 0.52 0.23
27 41 0.68 0.18
27 42 0.14 0.02
27 43 0.44 0.2
27 44 0.49 0.19
27 45 0.38 0.17
27 46 0.58 0.11
27 47 0.64 0.19
27 48 0.4 0.24
27 49 0.39 0.16
28 29 0.33 0.04
28 30 0.7 0.15
28 31 0.56 0.19
28 32 0.7 0.13
28 33 0.88 0.25
28 34 0.45 0.11
28 35 0.57 0.17
28 36 0.44 0.2
28 37 0.7 0.22
28 38 0.64 0.28
28 39 0.74 0.2
28 40 0.66 0.17
28 41 0.5 0.12
28 42 0.62 0.08
28 43 0.54 0.16
28 44 0.48 0.25
28 45 0.76 0.23
28 46 0.4 0.17
28 47 0.74 0.25
28 48 0.76 0.2
28 49 0.4 0.1
29 30 0.64 0.19
29 31 0.36 0.15
29 32 0.54 0.17
29 33 0.86 0.21
29 34 0.66 0.15
29 35 0.81 0.21
29 36 0.42 0.17
29 37 0.56 0.26
29 38 0.62 0.3
29 39 0.78 0.22
29 40 0.66 0.21
29 41 0.62 0.08
29 42 0.52 0.12
29 43 0.52 0.12
29 44 0.5 0.28
29 45 0.7 0.27
29 46 0.52 0.21
29 47 0.61 0.26
29 48 0.8 0.24
29 49 0.24 0.06
30 31 0.56 0.24
30 32 0.76 0.17
30 33 0.57 0.25
30 34 0.54 0.04
30 35 0.41 0.19
30 36 0.62 0.19
30 37 0.44 0.1
30 38 0.55 0.26
30 39 0.4 0.1
30 40 0.62 0.21
30 41 0.69 0.27
30 42 0.73 0.07
30 43 0.47 0.19
30 44 0.34 0.18
30 45 0.63 0.22
30 46 0.68 0.1
30 47 0.26 0.1
30 48 0.52 0.16
30 49 0.67 0.25
31 32 0.56 0.24
31 33 0.5 0.17
31 34 0.6 0.21
31 35 0.74 0.24
31 36 0.6 0.19
31 37 0.2 0.14
31 38 0.48 0.18
31 39 0.68 0.23
31 40 0.48 0.22
31 41 0.4 0.23
31 42 0.49 0.24
31 43 0.52 0.27
31 44 0.65 0.18
31 45 0.62 0.26
31 46 0.16 0.15
31 47 0.48 0.22
31 48 0.46 0.2
31 49 0.58 0.09
32 33 0.64 0.22
32 34 0.56 0.14
32 35 0.74 0.25
32 36 0.58 0.16
32 37 0.6 0.15
32 38 0.66 0.17
32 39 0.68 0.07
32 40 0.42 0.04
32 41 0.68 0.2
32 42 0.49 0.17
32 43 0.68 0.28
32 44 0.86 0.2
32 45 0.73 0.29
32 46 0.72 0.2
32 47 0.5 0.27
32 48 0.64 0.09
32 49 0.56 0.18
33 34 0.6 0.23
33 35 0.67 0.27
33 36 0.72 0.21
33 37 0.4 0.26
33 38 0.47 0.19
33 39 0.62 0.16
33 40 0.68 0.23
33 41 0.73 0.29
33 42 0.61 0.24
33 43 0.65 0.24
33 44 0.58 0.24
33 45 0.56 0.2
33 46 0.66 0.27
33 47 0.31 0.15
33 48 0.79 0.13
33 49 0.66 0.24
34 35 0.67 0.2
34 36 0.48 0.15
34 37 0.66 0.14
34 38 0.63 0.3
34 39 0.52 0.14
34 40 0.65 0.18
34 41 0.72 0.23
34 42 0.49 0.03
34 43 0.61 0.15
34 44 0.44 0.14
34 45 0.38 0.18
34 46 0.64 0.06
34 47 0.4 0.14
34 48 0.78 0.2
34 49 0.72 0.21
35 36 0.61 0.19
35 37 0.54 0.1
35 38 0.46 0.16
35 39 0.74 0.28
35 40 0.53 0.22
35 41 0.46 0.22
35 42 0.68 0.21
35 43 0.71 0.33
35 44 0.62 0.3
35 45 0.44 0.27
35 46 0.6 0.14
35 47 0.67 0.29
35 48 0.73 0.32
35 49 0.62 0.27
36 37 0.48 0.13
36 38 0.72 0.27
36 39 0.72 0.15
36 40 0.49 0.18
36 41 0.66 0.09
36 42 0.54 0.12
36 43 0.68 0.2
36 44 0.58 0.17
36 45 0.42 0.27
36 46 0.61 0.21
36 47 0.8 0.11
36 48 0.66 0.21
36 49 0.34 0.23
37 38 0.68 0.26
37 39 0.58 0.2
37 40 0.28 0.19
37 41 0.5 0.2
37 42 0.41 0.14
37 43 0.5 0.29
37 44 0.78 0.28
37 45 0.56 0.29
37 46 0.36 0.2
37 47 0.68 0.2
37 48 0.63 0.22
37 49 0.58 0.23
38 39 0.68 0.24
38 40 0.52 0.18
38 41 0.57 0.32
38 42 0.58 0.27
38 43 0.45 0.32
38 44 0.3 0.17
38 45 0.62 0.3
38 46 0.52 0.3
38 47 0.69 0.24
38 48 0.7 0.22
38 49 0.38 0.24
39 40 0.74 0.11
39 41 0.69 0.18
39 42 0.54 0.16
39 43 0.57 0.22
39 44 0.38 0.17
39 45 0.3 0.26
39 46 0.62 0.2
39 47 0.57 0.2
39 48 0.48 0.06
39 49 0.78 0.25
40 41 0.69 0.24
40 42 0.66 0.21
40 43 0.71 0.32
40 44 0.7 0.24
40 45 0.44 0.33
40 46 0.64 0.24
40 47 0.88 0.28
40 48 0.72 0.13
40 49 0.7 0.22
41 42 0.66 0.2
41 43 0.59 0.2
41 44 0.46 0.2
41 45 0.44 0.25
41 46 0.56 0.29
41 47 0.62 0.2
41 48 0.62 0.21
41 49 0.38 0.14
42 43 0.51 0.18
42 44 0.63 0.17
42 45 0.24 0.15
42 46 0.44 0.09
42 47 0.53 0.17
42 48 0.54 0.22
42 49 0.53 0.18
43 44 0.49 0.28
43 45 0.27 0.23
43 46 0.56 0.21
43 47 0.34 0.2
43 48 0.62 0.19
43 49 0.71 0.18
44 45 0.42 0.25
44 46 0.7 0.2
44 47 0.56 0.28
44 48 0.61 0.11
44 49 0.68 0.27
45 46 0.56 0.24
45 47 0.61 0.3
45 48 0.6 0.3
45 49 0.62 0.28
46 47 0.45 0.2
46 48 0.36 0.26
46 49 0.62 0.24
47 48 0.74 0.18
47 49 0.8 0.31
48 49 0.56 0.25
